Al O                                    
 1.
     4.1416240704999998   -2.3911677720000002    0.0000000000000000
     0.0000000000000000    4.7823355440000004    0.0000000000000000
     0.0000000000000000    0.0000000000000000   26.1091322468000016
  12  18
Selective dynamics
Direct
  0.0000000000000000  0.0000000000000000  0.1752156090457519   T   T   T
  0.0000000000000000  0.0000000000000000  0.0735842324617834   T   T   T
  0.0000000000000000  0.0000000000000000  0.3256365657400315   T   T   T
  0.0000000000000000  0.0000000000000000  0.4270510937852318   T   T   T
  0.6666666657813494  0.3333333328906747  0.3428901018713968   T   T   T
  0.6666666657813494  0.3333333328906747  0.2402428240492858   T   T   T
  0.6666666657813494  0.3333333328906747  0.4655669615977577   T   T   T
  0.6666666657813494  0.3333333328906747  0.0870625555048638   T   T   T
  0.3333333340979294  0.6666666666307606  0.0094036864229992   F   F   F
  0.3333333340979294  0.6666666666307606  0.4170947394531517   T   T   T
  0.3333333340979294  0.6666666666307606  0.1559968144468227   T   T   T
  0.3333333340979294  0.6666666666307606  0.2595684414846690   T   T   T
  0.3101468624850153  0.0036538726080154  0.1239520527002149   T   T   T
 -0.0036538720025122  0.3064929892715038  0.1239520527002149   T   T   T
  0.6935070093967766  0.6898531376419171  0.1239520527002149   T   T   T
  0.6882783026164591  1.0012508287457416  0.3778308908469002   T   T   T
 -0.0012508289934018  0.6870274741183694  0.3778308908469002   T   T   T
  0.3129725262562221  0.3117216966573171  0.3778308908469002   T   T   T
  0.9737849451517261  0.3323694569199470  0.2925905977008362   T   T   T
  0.6676305423575734  0.6414154876262756  0.2925905977008362   T   T   T
  0.3585845122492516  0.0262150553330490  0.2925905977008362   T   T   T
  0.3597478138674290  0.3333333334924262  0.0416666666558143   F   F   F
  0.6666666657813494  0.0264144797732442  0.0416666666558143   F   F   F
  0.9735855201097721  0.6402521866136013  0.0416666666558143   F   F   F
  0.6576412404208556  0.6834994053803679  0.4616665524517255   T   T   T
  0.3165005959538175  0.9741418356895964  0.4616665524517255   T   T   T
  0.0258581659191151  0.3423587609133376  0.4616665524517255   T   T   T
  0.0267936741866718  0.6673186201355912  0.2082092534191107   T   T   T
  0.3326813799875958  0.3594750538201683  0.2082092534191107   T   T   T
  0.6405249481195219  0.9732063259365158  0.2082092534191107   T   T   T
 
  0.00000000E+00  0.00000000E+00  0.00000000E+00
  0.00000000E+00  0.00000000E+00  0.00000000E+00
  0.00000000E+00  0.00000000E+00  0.00000000E+00
  0.00000000E+00  0.00000000E+00  0.00000000E+00
  0.00000000E+00  0.00000000E+00  0.00000000E+00
  0.00000000E+00  0.00000000E+00  0.00000000E+00
  0.00000000E+00  0.00000000E+00  0.00000000E+00
  0.00000000E+00  0.00000000E+00  0.00000000E+00
  0.00000000E+00  0.00000000E+00  0.00000000E+00
  0.00000000E+00  0.00000000E+00  0.00000000E+00
  0.00000000E+00  0.00000000E+00  0.00000000E+00
  0.00000000E+00  0.00000000E+00  0.00000000E+00
  0.00000000E+00  0.00000000E+00  0.00000000E+00
  0.00000000E+00  0.00000000E+00  0.00000000E+00
  0.00000000E+00  0.00000000E+00  0.00000000E+00
  0.00000000E+00  0.00000000E+00  0.00000000E+00
  0.00000000E+00  0.00000000E+00  0.00000000E+00
  0.00000000E+00  0.00000000E+00  0.00000000E+00
  0.00000000E+00  0.00000000E+00  0.00000000E+00
  0.00000000E+00  0.00000000E+00  0.00000000E+00
  0.00000000E+00  0.00000000E+00  0.00000000E+00
  0.00000000E+00  0.00000000E+00  0.00000000E+00
  0.00000000E+00  0.00000000E+00  0.00000000E+00
  0.00000000E+00  0.00000000E+00  0.00000000E+00
  0.00000000E+00  0.00000000E+00  0.00000000E+00
  0.00000000E+00  0.00000000E+00  0.00000000E+00
  0.00000000E+00  0.00000000E+00  0.00000000E+00
  0.00000000E+00  0.00000000E+00  0.00000000E+00
  0.00000000E+00  0.00000000E+00  0.00000000E+00
  0.00000000E+00  0.00000000E+00  0.00000000E+00
